\* Problem: Unknown *\

Maximize
 obj: + xp_0_0 + xp_1_0 + xp_1_1 + xp_2_0 + xp_2_1 + xp_3_0 + xp_3_1
 + xp_3_2 + xp_4_0 + xp_4_1 + xp_5_0 + xp_6_0 + xp_7_0 + xp_8_0 + xp_9_0
 + xp_9_1 + xp_10_0 + xp_11_0 + xp_11_1 + xp_12_0 + xp_12_1 + xp_13_0
 + xp_13_1 + xp_13_2 + xp_14_0 + xp_14_1 + xp_15_0 + xp_16_0 + xp_17_0
 + xp_17_1 + xp_18_0 + xp_18_1 + xp_18_2 + xp_18_3 + xp_19_0 + xp_19_1
 + xp_20_0 + xp_21_0 + xp_22_0 + xp_22_1 + xp_23_0 + xp_24_0 + xp_24_1
 + xp_24_2 + xp_24_3 + xp_25_0 + xp_26_0 + xp_26_1 + xp_26_2 + xp_27_0
 + xp_27_1 + xp_28_0 + xp_28_1 + xp_29_0 + xp_30_0 + xp_30_1 + xp_30_2
 + xp_31_0 + xp_32_0 + xp_32_1 + xp_32_2 + xp_33_0 + xp_34_0 + xp_34_1
 + xp_35_0 + xp_36_0 + xp_37_0 + xp_38_0 + xp_38_1 + xp_39_0 + xp_40_0
 + xp_40_1 + xp_40_2 + xp_41_0 + xp_41_1 + xp_42_0 + xp_42_1 + xp_42_2
 + xp_43_0 + xp_44_0 + xp_44_1 + xp_45_0 + xp_45_1 + xp_45_2 + xp_45_3
 + xp_46_0 + xp_47_0 + xp_48_0 + xp_48_1 + xp_49_0 + xp_50_0 + xp_50_1
 + xp_51_0 + xp_52_0 + xp_53_0 + xp_53_1 + xp_53_2 + xp_54_0 + xp_55_0
 + xp_56_0 + xp_57_0 + xp_57_1 + xp_58_0 + xp_58_1 + xp_58_2 + xp_59_0
 + xp_60_0 + xp_60_1 + xp_61_0 + xp_61_1 + xp_62_0 + xp_63_0 + xp_63_1
 + xp_64_0 + xp_65_0 + xp_65_1 + xp_66_0 + xp_67_0 + xp_67_1 + xp_68_0
 + xp_68_1 + xp_68_2 + xp_69_0 + xp_70_0 + xp_71_0 + xp_72_0 + xp_73_0
 + xp_74_0 + xp_75_0 + xp_76_0 + xp_77_0 + xp_77_1 + xp_77_2 + xp_78_0
 + xp_78_1 + xp_78_2 + xp_78_3 + xp_79_0 + xp_79_1 + xp_80_0 + xp_80_1
 + xp_81_0 + xp_81_1 + xp_81_2 + xp_81_3 + xp_81_4 + xp_82_0 + xp_82_1
 + xp_83_0 + xp_83_1 + xp_84_0 + xp_85_0 + xp_85_1 + xp_85_2 + xp_86_0
 + xp_86_1 + xp_87_0 + xp_88_0 + xp_88_1 + xp_89_0 + xp_90_0 + xp_90_1
 + xp_90_2 + xp_91_0 + xp_91_1 + xp_92_0 + xp_92_1 + xp_92_2 + xp_93_0
 + xp_94_0 + xp_94_1 + xp_94_2 + xp_94_3 + xp_94_4 + xp_95_0 + xp_95_1
 + xp_95_2 + xp_96_0 + xp_96_1 + xp_97_0 + xp_98_0 + xp_98_1 + xp_98_2
 + xp_98_3 + xp_99_0 + xp_99_1 + xp_99_2 + xp_100_0 + xp_101_0
 + xp_102_0 + xp_103_0 + xp_104_0 + xp_104_1 + xp_105_0 + xp_105_1
 + xp_106_0 + xp_106_1 + xp_106_2 + xp_107_0 + xp_108_0 + xp_108_1
 + xp_108_2 + xp_109_0 + xp_109_1 + xp_110_0 + xp_111_0 + xp_111_1
 + xp_112_0 + xp_112_1 + xp_112_2 + xp_113_0 + xp_114_0 + xp_115_0
 + xp_115_1 + xp_116_0 + xp_116_1 + xp_117_0 + xp_118_0 + xp_119_0
 + xp_119_1 + xp_119_2 + xp_119_3 + xp_120_0 + xp_120_1 + xp_121_0
 + xp_122_0 + xp_123_0 + xp_123_1 + xp_124_0 + xp_124_1 + xp_124_2
 + xp_125_0 + xp_125_1 + xp_126_0 + xp_126_1 + xp_126_2 + xp_126_3
 + xp_127_0 + xp_127_1 + xp_128_0 + xp_128_1 + xp_128_2 + xp_129_0
 + xp_129_1 + xp_130_0 + xp_131_0 + xp_131_1 + xp_131_2

Subject To
 r_1: + xp_128_2 + xp_128_1 + xp_123_1 + xp_122_0 + xp_121_0 + xp_108_2
 + xp_107_0 + xp_78_3 + xp_67_1 + xp_57_1 + xp_40_2 + xp_40_1 + xp_25_0
 + xp_22_1 + xp_18_3 + xp_18_2 + xp_18_1 + xp_16_0 + xp_13_2 + xp_13_1
 + xp_4_0 <= 40000
 r_2: + xp_131_2 + xp_131_1 + xp_127_1 + xp_126_1 + xp_120_1 + xp_120_0
 + xp_94_4 + xp_94_3 + xp_94_1 + xp_93_0 + xp_90_1 + xp_85_2 + xp_85_1
 + xp_85_0 + xp_77_2 + xp_77_1 + xp_75_0 + xp_71_0 + xp_66_0 + xp_65_1
 + xp_65_0 + xp_61_1 + xp_55_0 + xp_52_0 + xp_48_1 + xp_48_0 + xp_42_2
 + xp_42_1 + xp_38_1 + xp_32_2 + xp_32_0 + xp_28_1 + xp_28_0 + xp_24_3
 + xp_24_2 + xp_24_0 + xp_19_1 + xp_19_0 + xp_12_1 + xp_1_1
 <= 38882.8039430449
 r_3: + xp_126_3 + xp_124_1 + xp_114_0 + xp_106_2 + xp_105_1 + xp_98_3
 + xp_95_1 + xp_94_2 + xp_92_2 + xp_85_2 + xp_83_1 + xp_76_0 + xp_68_2
 + xp_58_1 + xp_41_1 + xp_34_0 + xp_30_2 + xp_26_2 + xp_24_3 <= 40000
 r_4: + xp_119_2 + xp_117_0 + xp_112_2 + xp_111_1 + xp_104_1 + xp_95_2
 + xp_95_0 + xp_91_1 + xp_91_0 + xp_88_1 + xp_84_0 + xp_82_1 + xp_81_4
 + xp_81_3 + xp_79_1 + xp_79_0 + xp_53_2 + xp_46_0 + xp_45_3 + xp_44_1
 + xp_43_0 + xp_40_2 + xp_40_1 + xp_40_0 + xp_34_1 + xp_27_1 + xp_18_3
 + xp_3_2 <= 40000
 r_5: + xp_130_0 + xp_119_2 + xp_112_2 + xp_111_1 + xp_104_1 + xp_99_0
 + xp_88_1 + xp_82_1 + xp_81_4 + xp_81_3 + xp_53_2 + xp_45_3 + xp_44_1
 + xp_27_1 + xp_18_3 + xp_7_0 + xp_3_2 + xp_2_0 <= 40000
 r_6: + xp_126_3 + xp_126_2 + xp_119_0 + xp_114_0 + xp_95_1 + xp_92_2
 + xp_92_1 + xp_83_1 + xp_83_0 + xp_81_0 + xp_70_0 + xp_68_2 + xp_68_1
 + xp_58_2 + xp_58_1 + xp_53_0 + xp_48_1 + xp_45_0 + xp_34_0 + xp_32_2
 + xp_32_1 + xp_30_2 + xp_30_1 + xp_18_1 <= 40000
 r_7: + xp_119_3 + xp_119_1 + xp_112_1 + xp_104_0 + xp_88_0 + xp_82_0
 + xp_81_2 + xp_81_1 + xp_78_2 + xp_53_1 + xp_50_1 + xp_45_2 + xp_45_1
 + xp_44_0 + xp_27_0 + xp_18_2 + xp_18_0 + xp_4_1 + xp_3_1 <= 40000
 r_8: + xp_131_2 + xp_131_1 + xp_127_1 + xp_126_1 + xp_120_1 + xp_120_0
 + xp_118_0 + xp_103_0 + xp_94_4 + xp_94_3 + xp_94_1 + xp_90_1 + xp_77_2
 + xp_77_1 + xp_71_0 + xp_61_1 + xp_55_0 + xp_42_2 + xp_42_1 + xp_38_1
 + xp_32_2 + xp_32_0 + xp_24_3 + xp_24_2 + xp_24_0 + xp_12_1 + xp_1_1
 <= 40000
 r_9: + xp_131_0 + xp_127_0 + xp_123_1 + xp_122_0 + xp_108_2 + xp_78_3
 + xp_77_0 + xp_67_1 + xp_57_1 + xp_42_0 + xp_33_0 + xp_32_1 + xp_24_1
 <= 40000
 r_10: + xp_112_2 + xp_112_1 + xp_111_1 + xp_106_0 + xp_99_0 + xp_98_0
 + xp_94_1 + xp_88_1 + xp_88_0 + xp_85_0 + xp_78_2 + xp_50_1 + xp_26_0
 + xp_24_0 + xp_8_0 + xp_7_0 + xp_4_1 + xp_3_2 + xp_3_1 + xp_2_0
 <= 40000
 r_11: + xp_119_0 + xp_112_0 + xp_111_0 + xp_95_1 + xp_81_0 + xp_78_3
 + xp_78_1 + xp_78_0 + xp_59_0 + xp_53_0 + xp_50_0 + xp_49_0 + xp_45_0
 + xp_34_0 + xp_18_1 + xp_4_0 + xp_3_0 <= 40000
 r_12: + xp_129_1 + xp_128_1 + xp_128_0 + xp_123_0 + xp_119_1 + xp_117_0
 + xp_112_2 + xp_112_1 + xp_111_1 + xp_108_1 + xp_101_0 + xp_95_0
 + xp_91_1 + xp_82_1 + xp_82_0 + xp_81_4 + xp_81_1 + xp_80_1 + xp_79_1
 + xp_78_2 + xp_78_0 + xp_73_0 + xp_63_1 + xp_60_1 + xp_50_1 + xp_46_0
 + xp_45_1 + xp_44_1 + xp_44_0 + xp_40_1 + xp_40_0 + xp_18_2 + xp_18_0
 + xp_17_1 + xp_15_0 + xp_14_0 + xp_13_1 + xp_13_0 + xp_9_0 + xp_4_1
 <= 38778.2968020122
 r_13: + xp_129_0 + xp_128_2 + xp_123_1 + xp_120_1 + xp_119_3 + xp_119_2
 + xp_109_1 + xp_100_0 + xp_96_1 + xp_95_2 + xp_91_0 + xp_90_0 + xp_81_3
 + xp_81_2 + xp_80_0 + xp_79_0 + xp_68_0 + xp_63_0 + xp_60_0 + xp_53_2
 + xp_53_1 + xp_45_3 + xp_45_2 + xp_40_2 + xp_34_1 + xp_31_0 + xp_30_0
 + xp_18_3 + xp_17_0 + xp_13_2 + xp_9_1 <= 38778.2968020122
 r_14: + xp_131_2 + xp_131_1 + xp_131_0 + xp_126_3 + xp_126_2 + xp_125_1
 + xp_125_0 + xp_124_2 + xp_124_1 + xp_124_0 + xp_115_1 + xp_115_0
 + xp_106_2 + xp_106_1 + xp_99_2 + xp_99_1 + xp_98_3 + xp_98_2 + xp_98_1
 + xp_94_4 + xp_94_3 + xp_94_2 + xp_94_0 + xp_92_2 + xp_92_1 + xp_86_1
 + xp_86_0 + xp_85_2 + xp_85_1 + xp_77_2 + xp_77_1 + xp_77_0 + xp_68_2
 + xp_68_1 + xp_65_1 + xp_65_0 + xp_58_2 + xp_58_1 + xp_56_0 + xp_51_0
 + xp_48_1 + xp_41_1 + xp_41_0 + xp_38_1 + xp_38_0 + xp_35_0 + xp_32_2
 + xp_32_1 + xp_30_2 + xp_30_1 + xp_26_2 + xp_26_1 + xp_24_3 + xp_24_2
 + xp_24_1 + xp_20_0 + xp_19_1 + xp_19_0 + xp_12_1 + xp_12_0 + xp_2_1
 + xp_0_0 <= 38778.2968020122
 r_15: + xp_131_2 + xp_131_0 + xp_126_3 + xp_126_2 + xp_125_0 + xp_124_1
 + xp_124_0 + xp_120_1 + xp_116_0 + xp_115_0 + xp_109_1 + xp_99_2
 + xp_98_3 + xp_98_1 + xp_96_1 + xp_94_4 + xp_94_2 + xp_94_0 + xp_92_2
 + xp_92_1 + xp_90_0 + xp_89_0 + xp_86_0 + xp_85_2 + xp_85_1 + xp_77_2
 + xp_77_0 + xp_68_2 + xp_68_1 + xp_68_0 + xp_65_0 + xp_58_2 + xp_58_1
 + xp_51_0 + xp_48_1 + xp_42_2 + xp_42_0 + xp_38_1 + xp_38_0 + xp_36_0
 + xp_32_2 + xp_32_1 + xp_28_0 + xp_26_1 + xp_24_3 + xp_24_2 + xp_24_1
 + xp_19_1 + xp_12_0 + xp_11_1 + xp_0_0 <= 38778.2968020122
 r_16: + xp_128_0 + xp_123_0 + xp_108_1 + xp_108_0 + xp_78_2 + xp_78_1
 + xp_78_0 + xp_73_0 + xp_67_0 + xp_57_0 + xp_46_0 + xp_44_1 + xp_44_0
 + xp_40_0 + xp_22_0 + xp_18_0 + xp_13_0 + xp_6_0 + xp_4_1 <= 40000
 r_17: + xp_129_1 + xp_128_1 + xp_126_0 + xp_124_2 + xp_119_1 + xp_112_2
 + xp_112_1 + xp_111_1 + xp_109_0 + xp_97_0 + xp_95_0 + xp_91_1
 + xp_90_2 + xp_81_4 + xp_81_1 + xp_80_1 + xp_79_1 + xp_63_1 + xp_62_0
 + xp_61_0 + xp_60_1 + xp_47_0 + xp_45_1 + xp_40_1 + xp_22_1 + xp_18_2
 + xp_17_1 + xp_13_1 + xp_9_0 + xp_1_0 <= 38882.8039430449
 r_18: + xp_126_1 + xp_126_0 + xp_106_0 + xp_99_0 + xp_98_0 + xp_94_1
 + xp_92_0 + xp_85_0 + xp_68_0 + xp_58_0 + xp_48_0 + xp_32_0 + xp_30_0
 + xp_26_0 + xp_24_0 + xp_5_0 + xp_2_0 <= 40000
 r_19: + xp_131_1 + xp_125_1 + xp_124_2 + xp_116_1 + xp_115_1 + xp_110_0
 + xp_108_1 + xp_106_2 + xp_106_1 + xp_99_1 + xp_98_2 + xp_94_3
 + xp_86_1 + xp_78_0 + xp_77_1 + xp_65_1 + xp_56_0 + xp_42_1 + xp_28_1
 + xp_26_2 + xp_19_0 + xp_14_0 + xp_12_1 + xp_11_0 + xp_3_0 + xp_2_1
 <= 38778.2968020122
 r_20: + xp_129_0 + xp_128_2 + xp_123_1 + xp_119_3 + xp_119_2 + xp_119_0
 + xp_112_0 + xp_111_0 + xp_108_2 + xp_108_0 + xp_107_0 + xp_95_2
 + xp_95_1 + xp_91_0 + xp_81_3 + xp_81_2 + xp_81_0 + xp_80_0 + xp_79_0
 + xp_78_3 + xp_78_1 + xp_69_0 + xp_64_0 + xp_63_0 + xp_60_0 + xp_50_0
 + xp_49_0 + xp_45_3 + xp_45_2 + xp_45_0 + xp_40_2 + xp_18_3 + xp_18_1
 + xp_17_0 + xp_14_1 + xp_13_2 + xp_10_0 + xp_9_1 + xp_4_0
 <= 38882.8039430449
 r_21: + xp_126_3 + xp_124_1 + xp_113_0 + xp_106_2 + xp_105_1 + xp_99_2
 + xp_99_1 + xp_98_3 + xp_94_2 + xp_92_2 + xp_86_1 + xp_86_0 + xp_85_2
 + xp_83_1 + xp_77_2 + xp_77_1 + xp_77_0 + xp_68_2 + xp_65_1 + xp_65_0
 + xp_58_1 + xp_41_1 + xp_38_1 + xp_38_0 + xp_30_2 + xp_26_2 + xp_24_3
 + xp_20_0 + xp_2_1 + xp_0_0 <= 40000
 r_22: + xp_126_2 + xp_124_2 + xp_124_0 + xp_106_1 + xp_105_0 + xp_98_2
 + xp_98_1 + xp_94_4 + xp_94_3 + xp_94_0 + xp_92_1 + xp_85_1 + xp_83_0
 + xp_68_1 + xp_58_2 + xp_48_1 + xp_41_0 + xp_32_2 + xp_32_1 + xp_30_1
 + xp_26_1 + xp_24_2 + xp_24_1 <= 40000
 r_23: + xp_128_2 + xp_128_1 + xp_128_0 + xp_119_3 + xp_119_2 + xp_119_1
 + xp_117_0 + xp_112_2 + xp_112_1 + xp_111_1 + xp_104_1 + xp_104_0
 + xp_100_0 + xp_95_2 + xp_95_0 + xp_91_1 + xp_91_0 + xp_84_0 + xp_82_1
 + xp_82_0 + xp_81_4 + xp_81_3 + xp_81_2 + xp_81_1 + xp_80_1 + xp_80_0
 + xp_79_1 + xp_79_0 + xp_78_2 + xp_73_0 + xp_60_1 + xp_60_0 + xp_53_2
 + xp_53_1 + xp_50_1 + xp_46_0 + xp_45_3 + xp_45_2 + xp_45_1 + xp_44_1
 + xp_44_0 + xp_40_2 + xp_40_1 + xp_40_0 + xp_34_1 + xp_21_0 + xp_18_3
 + xp_18_2 + xp_18_0 + xp_15_0 + xp_9_1 + xp_9_0 + xp_4_1 + xp_3_2
 + xp_3_1 <= 38778.2968020122
 r_24: + xp_128_0 + xp_126_1 + xp_103_0 + xp_94_4 + xp_94_3 + xp_94_1
 + xp_90_1 + xp_61_1 + xp_40_0 + xp_39_0 + xp_38_1 + xp_22_0 + xp_18_0
 + xp_13_0 + xp_12_1 + xp_4_1 + xp_1_1 <= 40000
 r_25: + xp_131_0 + xp_127_0 + xp_126_3 + xp_126_2 + xp_126_0 + xp_94_2
 + xp_94_0 + xp_90_2 + xp_90_0 + xp_89_0 + xp_77_0 + xp_74_0 + xp_61_0
 + xp_42_0 + xp_38_0 + xp_32_1 + xp_24_1 + xp_12_0 + xp_1_0 <= 40000
 r_26: + xp_128_2 + xp_128_1 + xp_123_1 + xp_121_0 + xp_112_2 + xp_112_1
 + xp_112_0 + xp_108_2 + xp_107_0 + xp_81_4 + xp_81_3 + xp_81_2
 + xp_81_1 + xp_81_0 + xp_79_1 + xp_79_0 + xp_78_3 + xp_67_1 + xp_64_0
 + xp_60_1 + xp_60_0 + xp_57_1 + xp_47_0 + xp_40_2 + xp_40_1 + xp_37_0
 + xp_29_0 + xp_25_0 + xp_22_1 + xp_18_3 + xp_18_2 + xp_18_1 + xp_17_1
 + xp_17_0 + xp_13_2 + xp_13_1 + xp_4_0 <= 38882.8039430449
 r_27: + xp_131_2 + xp_127_1 + xp_125_0 + xp_120_1 + xp_116_0 + xp_115_0
 + xp_108_0 + xp_99_2 + xp_98_3 + xp_98_1 + xp_96_1 + xp_94_4 + xp_92_2
 + xp_92_1 + xp_86_0 + xp_85_2 + xp_85_1 + xp_78_1 + xp_77_2 + xp_72_0
 + xp_67_0 + xp_65_0 + xp_58_2 + xp_58_1 + xp_57_0 + xp_52_0 + xp_50_0
 + xp_48_1 + xp_42_2 + xp_38_1 + xp_32_2 + xp_28_0 + xp_26_1 + xp_24_3
 + xp_24_2 + xp_23_0 + xp_19_1 + xp_14_1 + xp_11_1 <= 38882.8039430449
 r_28: + xp_131_1 + xp_126_1 + xp_126_0 + xp_125_1 + xp_124_2 + xp_120_0
 + xp_116_1 + xp_115_1 + xp_109_0 + xp_99_1 + xp_99_0 + xp_98_2
 + xp_98_0 + xp_96_0 + xp_94_3 + xp_94_1 + xp_92_0 + xp_90_2 + xp_90_1
 + xp_86_1 + xp_85_0 + xp_77_1 + xp_75_0 + xp_65_1 + xp_58_0 + xp_54_0
 + xp_48_0 + xp_42_1 + xp_32_0 + xp_28_1 + xp_26_2 + xp_26_0 + xp_24_0
 + xp_19_0 + xp_12_1 + xp_11_0 <= 38882.8039430449
 r_29: + xp_129_1 + xp_129_0 + xp_95_2 + xp_95_1 + xp_95_0 + xp_93_0
 + xp_87_0 + xp_71_0 + xp_62_0 + xp_49_0 + xp_45_3 + xp_45_2 + xp_45_1
 + xp_45_0 + xp_10_0 + xp_9_1 + xp_9_0 + xp_1_1 + xp_1_0
 <= 38882.8039430449
 r_30: + xp_125_1 + xp_125_0 + xp_121_0 + xp_102_0 + xp_99_2 + xp_99_1
 + xp_99_0 + xp_96_1 + xp_96_0 + xp_92_2 + xp_92_1 + xp_92_0 + xp_57_1
 + xp_57_0 + xp_37_0 + xp_26_2 + xp_26_1 + xp_26_0 + xp_23_0 + xp_11_1
 + xp_11_0 <= 38882.8039430449

Bounds
 0 <= xp_0_0 <= 233.314502676629
 0 <= xp_1_0 <= 98.468436629903
 0 <= xp_1_1 <= 82.0570305249191
 0 <= xp_2_0 <= 10.3385933766053
 0 <= xp_2_1 <= 103.385933766053
 0 <= xp_3_0 <= 65.5508292944191
 0 <= xp_3_1 <= 98.3262439416287
 0 <= xp_3_2 <= 16.3877073236048
 0 <= xp_4_0 <= 709.126785814265
 0 <= xp_4_1 <= 70.9126785814265
 0 <= xp_5_0 <= 1071.22639119993
 0 <= xp_6_0 <= 1771.82161571774
 0 <= xp_7_0 <= 631.122246905161
 0 <= xp_8_0 <= 1492.82178723767
 0 <= xp_9_0 <= 68.0984482926657
 0 <= xp_9_1 <= 38.9133990243804
 0 <= xp_10_0 <= 54.222811795239
 0 <= xp_11_0 <= 14.9302322687939
 0 <= xp_11_1 <= 26.1279064703894
 0 <= xp_12_0 <= 1858.16220097692
 0 <= xp_12_1 <= 185.816220097692
 0 <= xp_13_0 <= 90.6004412120623
 0 <= xp_13_1 <= 90.6004412120623
 0 <= xp_13_2 <= 67.9503309090468
 0 <= xp_14_0 <= 59.3121250963874
 0 <= xp_14_1 <= 158.1656669237
 0 <= xp_15_0 <= 501.430665808376
 0 <= xp_16_0 <= 2611.36279546085
 0 <= xp_17_0 <= 160.215611512986
 0 <= xp_17_1 <= 133.513009594155
 0 <= xp_18_0 <= 161.359077714525
 0 <= xp_18_1 <= 64.54363108581
 0 <= xp_18_2 <= 64.54363108581
 0 <= xp_18_3 <= 64.54363108581
 0 <= xp_19_0 <= 475.812283137636
 0 <= xp_19_1 <= 570.974739765163
 0 <= xp_20_0 <= 126.824028549922
 0 <= xp_21_0 <= 271.439917220157
 0 <= xp_22_0 <= 443.048717881116
 0 <= xp_22_1 <= 775.335256291952
 0 <= xp_23_0 <= 51.4204308971677
 0 <= xp_24_0 <= 153.123751185309
 0 <= xp_24_1 <= 91.8742507111856
 0 <= xp_24_2 <= 61.2495004741237
 0 <= xp_24_3 <= 30.6247502370619
 0 <= xp_25_0 <= 572.40259134325
 0 <= xp_26_0 <= 6.90227007664482
 0 <= xp_26_1 <= 6.90227007664482
 0 <= xp_26_2 <= 1.38045401532896
 0 <= xp_27_0 <= 273.436539551341
 0 <= xp_27_1 <= 60.7636754558535
 0 <= xp_28_0 <= 420.120146896896
 0 <= xp_28_1 <= 240.068655369655
 0 <= xp_29_0 <= 2421.12675263597
 0 <= xp_30_0 <= 65.9537085778628
 0 <= xp_30_1 <= 98.9305628667942
 0 <= xp_30_2 <= 16.4884271444657
 0 <= xp_31_0 <= 188.541579956282
 0 <= xp_32_0 <= 1619.43252675518
 0 <= xp_32_1 <= 404.858131688796
 0 <= xp_32_2 <= 202.429065844398
 0 <= xp_33_0 <= 7972.25228182235
 0 <= xp_34_0 <= 45.9400877032652
 0 <= xp_34_1 <= 459.400877032652
 0 <= xp_35_0 <= 258.210072515309
 0 <= xp_36_0 <= 315.495951803788
 0 <= xp_37_0 <= 360.920591012059
 0 <= xp_38_0 <= 301.093017420678
 0 <= xp_38_1 <= 30.1093017420678
 0 <= xp_39_0 <= 1556.42931645901
 0 <= xp_40_0 <= 381.816991493026
 0 <= xp_40_1 <= 229.090194895816
 0 <= xp_40_2 <= 229.090194895816
 0 <= xp_41_0 <= 64.6798990787395
 0 <= xp_41_1 <= 14.3733109063866
 0 <= xp_42_0 <= 285.913947947404
 0 <= xp_42_1 <= 81.689699413544
 0 <= xp_42_2 <= 81.689699413544
 0 <= xp_43_0 <= 486.767044830096
 0 <= xp_44_0 <= 371.176238653838
 0 <= xp_44_1 <= 82.4836085897418
 0 <= xp_45_0 <= 19.1367659635732
 0 <= xp_45_1 <= 7.65470638542928
 0 <= xp_45_2 <= 11.4820595781439
 0 <= xp_45_3 <= 3.82735319271464
 0 <= xp_46_0 <= 1588.29825271847
 0 <= xp_47_0 <= 869.520138187594
 0 <= xp_48_0 <= 2613.91633915444
 0 <= xp_48_1 <= 261.391633915445
 0 <= xp_49_0 <= 87.134494435378
 0 <= xp_50_0 <= 493.775959422947
 0 <= xp_50_1 <= 282.157691098827
 0 <= xp_51_0 <= 701.963829142451
 0 <= xp_52_0 <= 655.300928607125
 0 <= xp_53_0 <= 102.48538007365
 0 <= xp_53_1 <= 68.3235867157666
 0 <= xp_53_2 <= 17.0808966789416
 0 <= xp_54_0 <= 3653.97883284094
 0 <= xp_55_0 <= 1172.50313342325
 0 <= xp_56_0 <= 94.7595773440835
 0 <= xp_57_0 <= 111.194682230446
 0 <= xp_57_1 <= 92.6622351920386
 0 <= xp_58_0 <= 3271.19019131137
 0 <= xp_58_1 <= 817.797547827844
 0 <= xp_58_2 <= 408.898773913922
 0 <= xp_59_0 <= 10530.5001835174
 0 <= xp_60_0 <= 487.720920780602
 0 <= xp_60_1 <= 182.895345292726
 0 <= xp_61_0 <= 1523.58873016301
 0 <= xp_61_1 <= 870.62213152172
 0 <= xp_62_0 <= 129.82192439437
 0 <= xp_63_0 <= 94.8425230789101
 0 <= xp_63_1 <= 35.5659461545913
 0 <= xp_64_0 <= 983.766038520592
 0 <= xp_65_0 <= 469.828340839429
 0 <= xp_65_1 <= 46.9828340839429
 0 <= xp_66_0 <= 1662.07255915142
 0 <= xp_67_0 <= 254.72635165259
 0 <= xp_67_1 <= 145.557915230051
 0 <= xp_68_0 <= 397.535208242673
 0 <= xp_68_1 <= 927.582152566237
 0 <= xp_68_2 <= 132.511736080891
 0 <= xp_69_0 <= 1700.26314534374
 0 <= xp_70_0 <= 624.930940269888
 0 <= xp_71_0 <= 70.1246941005735
 0 <= xp_72_0 <= 592.670974117672
 0 <= xp_73_0 <= 913.185142878472
 0 <= xp_74_0 <= 943.098929674163
 0 <= xp_75_0 <= 1745.23158301046
 0 <= xp_76_0 <= 1703.78241437852
 0 <= xp_77_0 <= 360.233326352067
 0 <= xp_77_1 <= 51.461903764581
 0 <= xp_77_2 <= 154.385711293743
 0 <= xp_78_0 <= 2517.8118559671
 0 <= xp_78_1 <= 5035.6237119342
 0 <= xp_78_2 <= 12589.0592798355
 0 <= xp_78_3 <= 7553.43556790131
 0 <= xp_79_0 <= 575.098327725115
 0 <= xp_79_1 <= 479.248606437596
 0 <= xp_80_0 <= 121.716941162739
 0 <= xp_80_1 <= 101.430784302283
 0 <= xp_81_0 <= 70.4209288678115
 0 <= xp_81_1 <= 70.4209288678115
 0 <= xp_81_2 <= 23.4736429559372
 0 <= xp_81_3 <= 46.9472859118743
 0 <= xp_81_4 <= 46.9472859118743
 0 <= xp_82_0 <= 118.659798364843
 0 <= xp_82_1 <= 98.8831653040361
 0 <= xp_83_0 <= 453.357687780997
 0 <= xp_83_1 <= 45.3357687780997
 0 <= xp_84_0 <= 880.925176726256
 0 <= xp_85_0 <= 110.323752014767
 0 <= xp_85_1 <= 257.422088034456
 0 <= xp_85_2 <= 36.7745840049222
 0 <= xp_86_0 <= 154.279066777538
 0 <= xp_86_1 <= 15.4279066777537
 0 <= xp_87_0 <= 139.858358308393
 0 <= xp_88_0 <= 229.60564339081
 0 <= xp_88_1 <= 191.338036159008
 0 <= xp_89_0 <= 2198.50040036129
 0 <= xp_90_0 <= 13672.4846187503
 0 <= xp_90_1 <= 3906.4241767858
 0 <= xp_90_2 <= 3906.4241767858
 0 <= xp_91_0 <= 979.683923428052
 0 <= xp_91_1 <= 1714.44686599909
 0 <= xp_92_0 <= 48.1559237622052
 0 <= xp_92_1 <= 12.0389809405513
 0 <= xp_92_2 <= 6.01949047027566
 0 <= xp_93_0 <= 129.170207906447
 0 <= xp_94_0 <= 128.044515790942
 0 <= xp_94_1 <= 21.3407526318237
 0 <= xp_94_2 <= 21.3407526318237
 0 <= xp_94_3 <= 42.6815052636475
 0 <= xp_94_4 <= 21.3407526318237
 0 <= xp_95_0 <= 33.1308963678951
 0 <= xp_95_1 <= 11.0436321226317
 0 <= xp_95_2 <= 16.5654481839476
 0 <= xp_96_0 <= 83.1353250776653
 0 <= xp_96_1 <= 31.1757469041245
 0 <= xp_97_0 <= 522.415936719514
 0 <= xp_98_0 <= 38.6408630385215
 0 <= xp_98_1 <= 51.5211507180286
 0 <= xp_98_2 <= 38.6408630385215
 0 <= xp_98_3 <= 12.8802876795072
 0 <= xp_99_0 <= 1.47524914084512
 0 <= xp_99_1 <= 7.37624570422558
 0 <= xp_99_2 <= 7.37624570422558
 0 <= xp_100_0 <= 498.49794161272
 0 <= xp_101_0 <= 247.652265410947
 0 <= xp_102_0 <= 74.2956796232842
 0 <= xp_103_0 <= 1426.99842195739
 0 <= xp_104_0 <= 83.194572031113
 0 <= xp_104_1 <= 47.5397554463503
 0 <= xp_105_0 <= 1306.39532351947
 0 <= xp_105_1 <= 130.639532351947
 0 <= xp_106_0 <= 14.9302322687939
 0 <= xp_106_1 <= 18.6627903359924
 0 <= xp_106_2 <= 7.46511613439697
 0 <= xp_107_0 <= 445.774077739705
 0 <= xp_108_0 <= 229.516772960638
 0 <= xp_108_1 <= 306.022363947518
 0 <= xp_108_2 <= 306.022363947518
 0 <= xp_109_0 <= 609.734096710579
 0 <= xp_109_1 <= 348.419483834617
 0 <= xp_110_0 <= 132.03776045331
 0 <= xp_111_0 <= 2371.98732944654
 0 <= xp_111_1 <= 527.108295432564
 0 <= xp_112_0 <= 3374.56427568674
 0 <= xp_112_1 <= 421.820534460842
 0 <= xp_112_2 <= 843.641068921685
 0 <= xp_113_0 <= 421.660567686534
 0 <= xp_114_0 <= 2376.67968815959
 0 <= xp_115_0 <= 119.441858150352
 0 <= xp_115_1 <= 99.5348817919596
 0 <= xp_116_0 <= 86.346509954525
 0 <= xp_116_1 <= 71.9554249621042
 0 <= xp_117_0 <= 1926.14808005804
 0 <= xp_118_0 <= 3126.93570905717
 0 <= xp_119_0 <= 16.974252162736
 0 <= xp_119_1 <= 28.2904202712266
 0 <= xp_119_2 <= 11.3161681084907
 0 <= xp_119_3 <= 5.65808405424533
 0 <= xp_120_0 <= 1564.02477589099
 0 <= xp_120_1 <= 586.509290959122
 0 <= xp_121_0 <= 74.8822244624154
 0 <= xp_122_0 <= 2254.74353326909
 0 <= xp_123_0 <= 463.014941192955
 0 <= xp_123_1 <= 46.3014941192955
 0 <= xp_124_0 <= 111.656808467338
 0 <= xp_124_1 <= 12.4063120519264
 0 <= xp_124_2 <= 12.4063120519264
 0 <= xp_125_0 <= 14.7524914084512
 0 <= xp_125_1 <= 12.293742840376
 0 <= xp_126_0 <= 2286.87908081907
 0 <= xp_126_1 <= 11434.3954040953
 0 <= xp_126_2 <= 9147.51632327626
 0 <= xp_126_3 <= 2286.87908081907
 0 <= xp_127_0 <= 207.9094090383
 0 <= xp_127_1 <= 363.841465817026
 0 <= xp_128_0 <= 109.790529433738
 0 <= xp_128_1 <= 146.387372578318
 0 <= xp_128_2 <= 146.387372578318
 0 <= xp_129_0 <= 26.483388191075
 0 <= xp_129_1 <= 22.0694901592292
 0 <= xp_130_0 <= 400.088751936264
 0 <= xp_131_0 <= 276.730670163027
 0 <= xp_131_1 <= 276.730670163027
 0 <= xp_131_2 <= 207.54800262227

End
